(set-option :produce-models true)
(set-logic QF_UFLIA)
(declare-fun x () Int)
(declare-fun y () Int)
(declare-fun f (Int) Int)
(assert (and (< 0 x) (< x 2)))
(assert (and (< 5 y) (< y 7)))
(assert (and (= (f 5) 3) (= (f 7) 3)))
(check-sat)
(get-value (x y))
(get-value ((f 5) (f 7)))
(get-value ((f (+ x y))))
(get-value ((f (- y x))))
(get-value ((f (- x y))))
(exit)

